NAME : XML100_3364_03
DIMENSION : 101
NB_CLUSTERS : 7
CLUSTERING_ALG : KMedoids
CLUSTERING_PARAMS : k(6)
CLUSTERS
1 0
2 1 17 24 32 41 48 53 62 68 77 83 87
3 15 23 35 40 43 44 52 61 66 72 75 79 85 91 92 94
4 2 3 4 13 28 33 45 51 57 64 70 74 82 93 95 100
5 18 27 31 37 55 60 78 81 96 99
6 5 6 7 8 10 14 19 26 29 34 36 38 39 46 49 50 54 58 63 67 80 88 89 90 97 98
7 9 11 12 16 20 21 22 25 30 42 47 56 59 65 69 71 73 76 84 86
EOF